154637
0 1 2 3 4 5 6 7 8 9 10 11 12 112 111 110 109 108 212 87 86 85 84 83 187 62 61 60 59 58 162 37 36 35 34 33 137 136 135 134 133 132 131 28 29 30 31 32 53 54 55 56 57 181 78 79 80 81 82 206 103 104 105 106 107 205 204 203 202 201 200 77 76 75 74 73 175 52 51 50 49 48 150 27 26 25 24 23 125 124 123 122 121 120 119 18 19 20 21 22 144 43 44 45 46 47 169 68 69 70 71 72 194 93 94 95 96 97 219 218 217 216 215 214 213 92 91 90 89 88 188 67 66 65 64 63 163 42 41 40 39 38 138 17 16 15 14 13 113 114 115 116 117 118 143 142 141 140 139 145 146 147 148 149 151 152 153 154 155 157 158 159 160 161 186 185 184 183 182 180 179 178 177 176 174 173 172 171 170 168 167 166 165 164 189 190 191 192 193 195 196 197 198 199 99 100 101 102 224 223 222 221 220 207 208 209 210 211 156 130 129 128 127 126 98 
